p cnf 180 572
1 91 0
-1 -91 0
1 2 92 0
-1 -2 0
-1 -92 0
-2 -92 0
2 3 93 0
-2 -3 0
-2 -93 0
-3 -93 0
3 4 94 0
-3 -4 0
-3 -94 0
-4 -94 0
4 5 95 0
-4 -5 0
-4 -95 0
-5 -95 0
5 6 96 0
-5 -6 0
-5 -96 0
-6 -96 0
6 7 97 0
-6 -7 0
-6 -97 0
-7 -97 0
7 8 98 0
-7 -8 0
-7 -98 0
-8 -98 0
8 99 0
-8 -99 0
10 91 101 0
-10 -91 0
-10 -101 0
-91 -101 0
10 11 92 102 0
-10 -11 0
-10 -92 0
-10 -102 0
-11 -92 0
-11 -102 0
-92 -102 0
11 12 93 103 0
-11 -12 0
-11 -93 0
-11 -103 0
-12 -93 0
-12 -103 0
-93 -103 0
12 13 94 104 0
-12 -13 0
-12 -94 0
-12 -104 0
-13 -94 0
-13 -104 0
-94 -104 0
13 14 95 105 0
-13 -14 0
-13 -95 0
-13 -105 0
-14 -95 0
-14 -105 0
-95 -105 0
14 15 96 106 0
-14 -15 0
-14 -96 0
-14 -106 0
-15 -96 0
-15 -106 0
-96 -106 0
15 16 97 107 0
-15 -16 0
-15 -97 0
-15 -107 0
-16 -97 0
-16 -107 0
-97 -107 0
16 17 98 108 0
-16 -17 0
-16 -98 0
-16 -108 0
-17 -98 0
-17 -108 0
-98 -108 0
17 18 99 109 0
-17 -18 0
-17 -99 0
-17 -109 0
-18 -99 0
-18 -109 0
-99 -109 0
18 110 0
-18 -110 0
19 101 111 0
-19 -101 0
-19 -111 0
-101 -111 0
19 20 102 112 0
-19 -20 0
-19 -102 0
-19 -112 0
-20 -102 0
-20 -112 0
-102 -112 0
20 21 103 113 0
-20 -21 0
-20 -103 0
-20 -113 0
-21 -103 0
-21 -113 0
-103 -113 0
21 22 104 114 0
-21 -22 0
-21 -104 0
-21 -114 0
-22 -104 0
-22 -114 0
-104 -114 0
22 23 105 115 0
-22 -23 0
-22 -105 0
-22 -115 0
-23 -105 0
-23 -115 0
-105 -115 0
23 24 106 116 0
-23 -24 0
-23 -106 0
-23 -116 0
-24 -106 0
-24 -116 0
-106 -116 0
24 25 107 117 0
-24 -25 0
-24 -107 0
-24 -117 0
-25 -107 0
-25 -117 0
-107 -117 0
25 26 108 118 0
-25 -26 0
-25 -108 0
-25 -118 0
-26 -108 0
-26 -118 0
-108 -118 0
26 27 109 119 0
-26 -27 0
-26 -109 0
-26 -119 0
-27 -109 0
-27 -119 0
-109 -119 0
27 110 120 0
-27 -110 0
-27 -120 0
-110 -120 0
28 111 121 0
-28 -111 0
-28 -121 0
-111 -121 0
28 29 112 122 0
-28 -29 0
-28 -112 0
-28 -122 0
-29 -112 0
-29 -122 0
-112 -122 0
29 30 113 123 0
-29 -30 0
-29 -113 0
-29 -123 0
-30 -113 0
-30 -123 0
-113 -123 0
30 31 114 124 0
-30 -31 0
-30 -114 0
-30 -124 0
-31 -114 0
-31 -124 0
-114 -124 0
31 32 115 125 0
-31 -32 0
-31 -115 0
-31 -125 0
-32 -115 0
-32 -125 0
-115 -125 0
32 33 116 126 0
-32 -33 0
-32 -116 0
-32 -126 0
-33 -116 0
-33 -126 0
-116 -126 0
33 34 117 127 0
-33 -34 0
-33 -117 0
-33 -127 0
-34 -117 0
-34 -127 0
-117 -127 0
34 35 118 128 0
-34 -35 0
-34 -118 0
-34 -128 0
-35 -118 0
-35 -128 0
-118 -128 0
35 36 119 129 0
-35 -36 0
-35 -119 0
-35 -129 0
-36 -119 0
-36 -129 0
-119 -129 0
36 120 130 0
-36 -120 0
-36 -130 0
-120 -130 0
37 121 131 0
-37 -121 0
-37 -131 0
-121 -131 0
37 38 122 132 0
-37 -38 0
-37 -122 0
-37 -132 0
-38 -122 0
-38 -132 0
-122 -132 0
38 39 123 133 0
-38 -39 0
-38 -123 0
-38 -133 0
-39 -123 0
-39 -133 0
-123 -133 0
39 40 124 134 0
-39 -40 0
-39 -124 0
-39 -134 0
-40 -124 0
-40 -134 0
-124 -134 0
40 41 125 135 0
-40 -41 0
-40 -125 0
-40 -135 0
-41 -125 0
-41 -135 0
-125 -135 0
41 42 126 136 0
-41 -42 0
-41 -126 0
-41 -136 0
-42 -126 0
-42 -136 0
-126 -136 0
42 43 127 137 0
-42 -43 0
-42 -127 0
-42 -137 0
-43 -127 0
-43 -137 0
-127 -137 0
43 44 128 138 0
-43 -44 0
-43 -128 0
-43 -138 0
-44 -128 0
-44 -138 0
-128 -138 0
44 45 129 139 0
-44 -45 0
-44 -129 0
-44 -139 0
-45 -129 0
-45 -139 0
-129 -139 0
45 130 140 0
-45 -130 0
-45 -140 0
-130 -140 0
46 131 141 0
-46 -131 0
-46 -141 0
-131 -141 0
46 47 132 142 0
-46 -47 0
-46 -132 0
-46 -142 0
-47 -132 0
-47 -142 0
-132 -142 0
47 48 133 143 0
-47 -48 0
-47 -133 0
-47 -143 0
-48 -133 0
-48 -143 0
-133 -143 0
48 49 134 144 0
-48 -49 0
-48 -134 0
-48 -144 0
-49 -134 0
-49 -144 0
-134 -144 0
49 50 135 145 0
-49 -50 0
-49 -135 0
-49 -145 0
-50 -135 0
-50 -145 0
-135 -145 0
50 51 136 146 0
-50 -51 0
-50 -136 0
-50 -146 0
-51 -136 0
-51 -146 0
-136 -146 0
51 52 137 147 0
-51 -52 0
-51 -137 0
-51 -147 0
-52 -137 0
-52 -147 0
-137 -147 0
52 53 138 148 0
-52 -53 0
-52 -138 0
-52 -148 0
-53 -138 0
-53 -148 0
-138 -148 0
53 54 139 149 0
-53 -54 0
-53 -139 0
-53 -149 0
-54 -139 0
-54 -149 0
-139 -149 0
54 140 150 0
-54 -140 0
-54 -150 0
-140 -150 0
55 141 151 0
-55 -141 0
-55 -151 0
-141 -151 0
55 56 142 152 0
-55 -56 0
-55 -142 0
-55 -152 0
-56 -142 0
-56 -152 0
-142 -152 0
56 57 143 153 0
-56 -57 0
-56 -143 0
-56 -153 0
-57 -143 0
-57 -153 0
-143 -153 0
57 58 144 154 0
-57 -58 0
-57 -144 0
-57 -154 0
-58 -144 0
-58 -154 0
-144 -154 0
58 59 145 155 0
-58 -59 0
-58 -145 0
-58 -155 0
-59 -145 0
-59 -155 0
-145 -155 0
59 60 146 156 0
-59 -60 0
-59 -146 0
-59 -156 0
-60 -146 0
-60 -156 0
-146 -156 0
60 61 147 157 0
-60 -61 0
-60 -147 0
-60 -157 0
-61 -147 0
-61 -157 0
-147 -157 0
61 62 148 158 0
-61 -62 0
-61 -148 0
-61 -158 0
-62 -148 0
-62 -158 0
-148 -158 0
62 63 149 159 0
-62 -63 0
-62 -149 0
-62 -159 0
-63 -149 0
-63 -159 0
-149 -159 0
63 150 160 0
-63 -150 0
-63 -160 0
-150 -160 0
64 151 161 0
-64 -151 0
-64 -161 0
-151 -161 0
64 65 152 162 0
-64 -65 0
-64 -152 0
-64 -162 0
-65 -152 0
-65 -162 0
-152 -162 0
65 66 153 163 0
-65 -66 0
-65 -153 0
-65 -163 0
-66 -153 0
-66 -163 0
-153 -163 0
66 67 154 164 0
-66 -67 0
-66 -154 0
-66 -164 0
-67 -154 0
-67 -164 0
-154 -164 0
67 68 155 165 0
-67 -68 0
-67 -155 0
-67 -165 0
-68 -155 0
-68 -165 0
-155 -165 0
68 69 156 166 0
-68 -69 0
-68 -156 0
-68 -166 0
-69 -156 0
-69 -166 0
-156 -166 0
69 70 157 167 0
-69 -70 0
-69 -157 0
-69 -167 0
-70 -157 0
-70 -167 0
-157 -167 0
70 71 158 168 0
-70 -71 0
-70 -158 0
-70 -168 0
-71 -158 0
-71 -168 0
-158 -168 0
71 72 159 169 0
-71 -72 0
-71 -159 0
-71 -169 0
-72 -159 0
-72 -169 0
-159 -169 0
72 160 170 0
-72 -160 0
-72 -170 0
-160 -170 0
73 161 0
-73 -161 0
73 74 162 172 0
-73 -74 0
-73 -162 0
-73 -172 0
-74 -162 0
-74 -172 0
-162 -172 0
74 75 163 173 0
-74 -75 0
-74 -163 0
-74 -173 0
-75 -163 0
-75 -173 0
-163 -173 0
75 76 164 174 0
-75 -76 0
-75 -164 0
-75 -174 0
-76 -164 0
-76 -174 0
-164 -174 0
76 77 165 175 0
-76 -77 0
-76 -165 0
-76 -175 0
-77 -165 0
-77 -175 0
-165 -175 0
77 78 166 176 0
-77 -78 0
-77 -166 0
-77 -176 0
-78 -166 0
-78 -176 0
-166 -176 0
78 79 167 177 0
-78 -79 0
-78 -167 0
-78 -177 0
-79 -167 0
-79 -177 0
-167 -177 0
79 80 168 178 0
-79 -80 0
-79 -168 0
-79 -178 0
-80 -168 0
-80 -178 0
-168 -178 0
80 81 169 179 0
-80 -81 0
-80 -169 0
-80 -179 0
-81 -169 0
-81 -179 0
-169 -179 0
81 170 180 0
-81 -170 0
-81 -180 0
-170 -180 0
83 172 0
-83 -172 0
83 84 173 0
-83 -84 0
-83 -173 0
-84 -173 0
84 85 174 0
-84 -85 0
-84 -174 0
-85 -174 0
85 86 175 0
-85 -86 0
-85 -175 0
-86 -175 0
86 87 176 0
-86 -87 0
-86 -176 0
-87 -176 0
87 88 177 0
-87 -88 0
-87 -177 0
-88 -177 0
88 89 178 0
-88 -89 0
-88 -178 0
-89 -178 0
89 90 179 0
-89 -90 0
-89 -179 0
-90 -179 0
90 180 0
-90 -180 0
